!File created by the GAMESS Input Deck Generator Plugin for Avogadro
 $BASIS GBASIS=STO NGAUSS=3 $END
 $CONTRL SCFTYP=RHF RUNTYP=SADPOINT $END
 $STATPT hssend=.t. OPTTOL=0.0005 NSTEP=50 $END
 $STATPT HESS=calc ihrep=5 $END
 $FORCE nvib=2 $END
 $ZMAT DLC=.t. auto=.t. nonvdw(1)=1,6,3,4,4,5,5,6,1,2,2,3 $END
 $ZMAT IFZMAT(1)=1,1,6,1,3,4 fvalue(1)=2.00,2.00 $END


 $DATA 
Title
C1
C     6.0     4.23645639    -2.45496202    -2.95089912
C     6.0     3.10444498    -2.04589939    -2.23673487
C     6.0     3.09399557    -0.79162234    -1.61557364
C     6.0     4.58651972    -0.82225072    -0.28462157
C     6.0     5.17110538    -2.08722591    -0.42120686
C     6.0     5.76124573    -2.38171053    -1.65874946
C     6.0     6.55585241    -1.25925660    -2.27456188
C     6.0     6.39969110    -0.00705009    -1.89507425
C     6.0     5.39290333     0.36422166    -0.83072621
O     8.0     5.22699261     1.51159596    -0.43858150
H     1.0     4.26005554    -3.47597766    -3.31740570
H     1.0     4.67308903    -1.75027347    -3.64798546
H     1.0     2.49364924    -2.82230020    -1.79077029
H     1.0     3.46033216     0.05224345    -2.18808317
H     1.0     2.24124527    -0.53674299    -0.99549842
H     1.0     4.07160378    -0.59791905     0.64506203
H     1.0     4.81752110    -2.90114617     0.19988462
H     1.0     6.19671297    -3.36711454    -1.79307067
H     1.0     7.26825285    -1.52745128    -3.04712033
H     1.0     6.98921442     0.79929888    -2.31119728
 $END
