!File created by the GAMESS Input Deck Generator Plugin for Avogadro
 $BASIS GBASIS=STO NGAUSS=3 $END
 $CONTRL SCFTYP=RHF RUNTYP=OPTIMIZE NZVAR=1 mult=1 ICHARG=0 $END
 $STATPT hssend=.t. OPTTOL=0.0005 NSTEP=50 $END
 $STATPT HESS=calc ihrep=5 $END
 $FORCE nvib=2 $END
 $ZMAT DLC=.t. auto=.t. nonvdw(1)=1,6,3,4 $END
 $ZMAT IFZMAT(1)=1,1,6,1,3,4 fvalue(1)=2.00,2.00 $END


 $DATA 
Title
C1
C     6.0     4.20121    -2.37975    -2.95511
C     6.0     3.06951    -2.10000    -2.25959
C     6.0     2.96561    -0.81819    -1.46124
C     6.0     4.57520    -0.77875    -0.29715
C     6.0     5.18340    -2.13973    -0.49369
C     6.0     5.76463    -2.36511    -1.70374
C     6.0     6.65061    -1.27725    -2.18329
C     6.0     6.51082     0.00071    -1.80188
C     6.0     5.42277     0.35178    -0.85312
O     8.0     5.21424     1.53211    -0.57984
H     1.0     4.28097    -3.35907    -3.43365
H     1.0     4.66132    -1.53445    -3.47870
H     1.0     2.38808    -2.90357    -1.99191
H     1.0     3.00620     0.09651    -2.08044
H     1.0     2.13423    -0.82018    -0.77221
H     1.0     4.20640    -0.57630     0.71068
H     1.0     4.80677    -2.96724     0.09945
H     1.0     6.10135    -3.38166    -1.93688
H     1.0     7.44554    -1.56377    -2.86685
H     1.0     7.14853     0.80127    -2.15101
 $END