!File created by the GAMESS Input Deck Generator Plugin for Avogadro
 $BASIS GBASIS=STO NGAUSS=3 $END
 $CONTRL SCFTYP=RHF RUNTYP=OPTIMIZE NZVAR=1 mult=1  ICHARG=0 $END
 $STATPT hssend=.t. OPTTOL=0.0005 NSTEP=50 $END
 $STATPT HESS=calc ihrep=5 $END
 $FORCE nvib=2 $END
 $ZMAT DLC=.t. auto=.t. nonvdw(1)=4,7,5,17,17,16,16,17,5,6,6,4 $END
!$ZMAT IFZMAT(1)=1,4,7,1,5,17 fvalue(1)=2.00,2.00 $END


 $DATA 
Title
C1
C     6.0     3.77061    -0.63020    -2.96476
C     6.0     2.93669    -0.94053    -1.93948
C     6.0     2.77523     0.01120    -0.78440
C     6.0     4.62940     0.44648    -0.17947
C     6.0     5.47160    -0.55218    -0.92393
C     6.0     5.62002    -0.32852    -2.25828
C     6.0     5.96807     1.06648    -2.61857
C     6.0     5.61432     2.12092    -1.86952
C     6.0     4.84297     1.88477    -0.62165
O     8.0     4.37531     2.84248    -0.00883
H     1.0     3.92926    -1.38051    -3.74335
H     1.0     3.76240     0.41851    -3.28223
H     1.0     2.63627    -1.97331    -1.78182
H     1.0     2.33751    -0.47125     0.09395
H     1.0     2.29816     0.96354    -1.02600
H     1.0     4.62991     0.33633     0.90699
H     1.0     5.56070    -1.55637    -0.52130
H     1.0     6.10337    -1.10325    -2.86421
H     1.0     6.54239     1.20556    -3.53071
H     1.0     5.85362     3.14389    -2.12615
 $END
