!File created by the GAMESS Input Deck Generator Plugin for Avogadro
 $BASIS GBASIS=STO NGAUSS=3 $END
 $CONTRL SCFTYP=RHF RUNTYP=IRC $END
 $STATPT  HESS=READ ihrep=5 $END
 $irc npoint=100 saddle=.t. tsengy=.t. forwd=.f. opttol=0.0005 stride=0.1 $end

 $DATA 
Title
C1
C     6.0     4.26052094    -2.46140695    -2.92767596
C     6.0     3.10969400    -2.04201937    -2.23730278
C     6.0     3.12024593    -0.79125434    -1.59781599
C     6.0     4.55828476    -0.82399476    -0.30777845
C     6.0     5.16859055    -2.08441877    -0.42581362
C     6.0     5.73392296    -2.38087416    -1.68063748
C     6.0     6.54255533    -1.25445735    -2.28502607
C     6.0     6.39433336    -0.00517839    -1.89649689
C     6.0     5.38592148     0.36389768    -0.83184671
O     8.0     5.23378038     1.50552833    -0.42067462
H     1.0     4.27044153    -3.48317575    -3.29381061
H     1.0     4.68381977    -1.76818562    -3.64514565
H     1.0     2.49239111    -2.81502533    -1.79418468
H     1.0     3.47598028     0.05084082    -2.18044043
H     1.0     2.25788045    -0.53192484    -0.99253893
H     1.0     4.05431032    -0.59972668     0.62836689
H     1.0     4.82427502    -2.89781666     0.20107549
H     1.0     6.18720293    -3.36010981    -1.80502737
H     1.0     7.25565624    -1.52285004    -3.05694318
H     1.0     6.99107552     0.80060869    -2.30319715
 $END

 $HESS
ENERGY IS     -416.0940647090 E(NUC) IS      511.4290955355
 1  1 3.64046553E-01 3.92224622E-02-3.87412687E-01-2.44132217E-01-5.55121337E-02
 1  2 1.04545046E-01 9.48645666E-02 9.64492362E-02 1.25220298E-01-1.26147026E-01
 1  3 8.24655958E-02-6.81210442E-02 6.51648168E-02-1.07804243E-01-1.30859338E-01
 1  4 7.20859254E-02 4.59001747E-02 2.16605562E-01-3.67961953E-02-2.35866684E-02
 1  5-1.68535799E-02-5.07394402E-03 9.84474073E-03-4.42299879E-04 7.97058820E-03
 1  6-1.50644511E-03 1.04412312E-02-6.38448579E-04 2.95616980E-03-2.49080163E-03
 1  7-5.81428040E-02 4.41682916E-04 2.48442294E-02-9.35285884E-02-9.64429540E-02
 1  8 1.40788341E-01-1.21074141E-02 1.49611034E-02 7.81352205E-03-1.65936636E-02
 1  9 1.61292873E-04-1.18617276E-02-2.06655276E-03-8.05892885E-04-3.91131633E-03
 1 10 7.19975591E-03 4.36187921E-04 3.18267117E-03-6.87511238E-04-1.26903257E-03
 1 11 1.89211355E-03-1.96180082E-02-5.40616414E-03-1.67608971E-02 1.31803217E-03
 1 12-8.86814510E-05 1.06069094E-03 2.87775244E-03-4.18213186E-04 2.32339869E-03
 2  1 3.92224622E-02 9.04898200E-01 4.99551500E-02 7.02932565E-02-1.65778935E-01
 2  2-5.26474017E-02 2.73914808E-02-2.12659501E-02-4.28197943E-02 1.71392919E-02
 2  3-1.14136478E-02 5.34955934E-03-5.69948897E-03 1.08951957E-02 1.37686778E-02
 2  4-1.28449762E-02-5.06132755E-02-2.29684480E-02-1.05377167E-02-2.12154471E-03
 2  5-7.60480504E-03-1.99858473E-04-1.49228921E-03-1.15547549E-04-2.35494088E-03
 2  6-3.62502449E-04-1.46829903E-03 5.32293811E-04-9.00074820E-05 4.05639647E-04
 2  7-9.32435876E-03-4.28926126E-01-1.28082894E-01-9.86642157E-02-2.47452300E-01
 2  8 1.63878089E-01-2.64554787E-02 1.41017792E-02 1.62628748E-02 2.47715835E-03
 2  9 2.18425887E-03 2.35092507E-03-2.27480776E-03-6.30185095E-03-4.68869566E-03
 2 10-1.84759534E-03 3.62476297E-04-4.43848913E-04-6.16007115E-04 7.32724071E-04
 2 11-1.24159368E-03 1.30566272E-02 2.07193197E-03 9.64196818E-03 2.89737343E-04
 2 12 2.48275251E-04 3.89787840E-04 4.17627889E-04 3.24318069E-04 7.85616877E-05
 3  1-3.87412687E-01 4.99551500E-02 6.17771174E-01 2.21775572E-01-6.97593775E-02
 3  2-2.25536387E-01 2.95843548E-02 4.70407383E-03 1.00135961E-02-2.06241629E-02
 3  3 1.56698970E-02-1.30721224E-02 1.05999037E-02-3.60834554E-02-4.99181362E-02
 3  4 2.58107312E-02 1.49782252E-02 1.83408669E-02-1.13872891E-02-1.24273976E-02
 3  5-1.20207714E-03-2.57444215E-03 5.57094208E-03 5.66701004E-04 2.38584314E-03
 3  6-6.07713546E-04-1.28276697E-03-7.16277700E-04 1.91726425E-03 3.15827195E-04
 3  7 1.16453621E-02-1.19214614E-01-1.14395258E-01 1.11478658E-01 1.61723681E-01
 3  8-2.35086807E-01 1.62842361E-02-1.30077457E-02-2.88219971E-03-6.91010607E-03
 3  9-1.00754716E-03-3.91382751E-03 2.60764660E-03-4.07599349E-03 2.17538794E-03
 3 10 4.06501788E-04 1.10416617E-03 1.29275884E-03-5.23723484E-05 1.43779557E-03
 3 11-3.77050663E-04-4.09020702E-03-1.56273772E-03-3.76564655E-03 7.30935223E-04
 3 12 8.11597526E-04-8.19967858E-05 4.56576584E-04-1.25694800E-04 1.03971385E-03
 4  1-2.44132217E-01 7.02932565E-02 2.21775572E-01 6.49997753E-01 1.28607005E-01
 4  2-2.75459356E-01-1.46482544E-01-5.04124355E-02-4.68836866E-03 4.13988540E-02
 4  3-2.59874605E-02 2.32447644E-02-5.57220561E-02 4.08255063E-02 2.87666959E-02
 4  4-6.58906453E-02-1.76385244E-02-1.07105425E-01 8.00620676E-03 4.51940165E-03
 4  5 3.57273175E-03 1.62335377E-03-2.69046646E-03 5.85554092E-04-2.48572051E-03
 4  6-1.30018600E-03-3.50680066E-03-4.10903584E-04-1.26151229E-03 8.22982668E-04
 4  7 3.75485223E-03-6.46502829E-03-8.89391669E-03-2.40682246E-02 6.56511716E-03
 4  8-9.81773648E-03-1.88459976E-01-1.63643699E-01 1.13388359E-01 9.27449230E-03
 4  9-1.37504131E-02-7.22901954E-03 1.11471272E-02 3.34785948E-02 1.96369336E-02
 4 10-1.95299851E-03-8.22813743E-04-1.56746678E-03 1.02524534E-03-2.10399470E-03
 4 11 3.01397330E-03 4.80872035E-03 1.44942842E-03 4.46660700E-03-4.06407870E-04
 4 12 8.49122357E-05-2.50486385E-04-1.02364673E-03 2.52991168E-04-7.58181577E-04
 5  1-5.55121337E-02-1.65778935E-01-6.97593775E-02 1.28607005E-01 8.34248170E-01
 5  2 4.84678487E-02 7.18739429E-02-3.94070313E-01-5.60080729E-02-1.10518650E-01
 5  3 5.25099910E-02-6.69001924E-02 5.97274776E-02-6.50628538E-02-5.50151351E-02
 5  4 5.96618437E-02 1.82865184E-02 1.07139520E-01-9.12448521E-03-5.27162944E-03
 5  5-2.46061563E-03-2.46496319E-03 3.47633390E-03-1.22522628E-03 7.42235485E-03
 5  6 2.26982267E-03 7.42779752E-03-4.87095448E-04 9.85547597E-04-2.01801857E-03
 5  7 4.16569245E-02-2.83023426E-03-1.22212894E-02-1.46953406E-02 1.81814463E-02
 5  8 2.35311282E-02-1.50521701E-01-2.75981307E-01 1.16828491E-01-1.70879106E-02
 5  9-1.97268974E-02-3.32702980E-02-1.11901736E-02 1.66890367E-04-5.99463310E-03
 5 10 6.46868757E-03 2.67343648E-04 3.42967825E-03-3.45531682E-04-2.07594095E-04
 5 11 2.87915743E-04-4.96176162E-03-8.15744489E-04-3.45079303E-03 3.87391549E-04
 5 12-3.82914542E-04 3.62561986E-04 1.10212159E-03-2.64922624E-04 8.50754575E-04
 6  1 1.04545046E-01-5.26474017E-02-2.25536387E-01-2.75459356E-01 4.84678487E-02
 6  2 4.87646709E-01 1.04301133E-01-8.43402780E-02-9.39557732E-02-9.84724189E-02
 6  3 3.69288827E-02-6.30283894E-02 8.35114186E-03-6.49094388E-02-6.20544836E-02
 6  4 3.38773134E-02 1.57898024E-02 7.95168926E-02-5.81286888E-03-2.00979872E-03
 6  5-2.85306264E-03-1.79733827E-03 1.47742803E-03-3.26316974E-04 6.38871472E-03
 6  6 4.04983921E-03 4.67842914E-03-3.47605791E-04-6.85546821E-04-1.23552505E-03
 6  7 1.62663974E-02-9.04523050E-04 7.40414540E-04 3.30825969E-02-9.53116441E-03
 6  8 3.54175326E-03 9.86558207E-02 1.05186137E-01-1.28093288E-01-1.25203678E-02
 6  9 2.34678790E-02 8.24245502E-03-1.18660702E-02-1.71529307E-02-9.98327030E-03
 6 10 3.63523747E-03 1.12029649E-05 2.28261762E-03 1.82832700E-03-1.05792387E-03
 6 11 3.10273663E-03-5.37126305E-03-1.44482524E-03-3.70901522E-03 4.38635805E-05
 6 12-5.46218897E-04 5.63207587E-04 6.70190106E-04-1.50768376E-04 4.61838215E-04
 7  1 9.48645666E-02 2.73914808E-02 2.95843548E-02-1.46482544E-01 7.18739429E-02
 7  2 1.04301133E-01 5.27886246E-01-4.70211365E-02-4.13917098E-01 7.12480286E-02
 7  3-5.58413681E-02 6.48139107E-02-7.14678082E-02 8.08888073E-02 4.05341370E-02
 7  4-3.12781608E-02-1.08144484E-02-8.36643725E-02 6.30786483E-03 1.54867145E-03
 7  5 2.17619067E-03 3.45423209E-03-8.75122110E-04 2.31951448E-03-2.77952056E-02
 7  6-1.91092896E-02-1.84507732E-02 6.98902238E-04 5.24453927E-03 3.76544392E-03
 7  7-6.62725307E-03 1.82890208E-03 3.82900036E-03-9.58875058E-03-2.11350868E-03
 7  8-8.98391022E-03 4.36128639E-03-1.99167570E-02-1.21268731E-02-9.88675945E-02
 7  9-1.02500851E-01 9.96110257E-02-3.15735328E-01 6.81972516E-02 1.87212938E-01
 7 10-3.11261428E-03 7.28508149E-04-8.51479044E-05-9.76191584E-04-5.62167153E-04
 7 11-1.28362328E-03 4.19962464E-03 5.85335345E-04 2.14115656E-03-5.36314450E-04
 7 12 3.87147950E-04-6.34345657E-04-5.50783868E-04 8.18642801E-05-1.14498619E-03
 8  1 9.64492362E-02-2.12659501E-02 4.70407383E-03-5.04124355E-02-3.94070313E-01
 8  2-8.43402780E-02-4.70211365E-02 8.97978666E-01-2.27560258E-02 8.05600619E-02
 8  3-7.53353691E-02 5.11646625E-02-3.25274921E-02 4.99687956E-02 3.38804042E-02
 8  4-2.96216567E-02-1.67921973E-02-7.74367358E-02 6.32835600E-03 3.12209751E-03
 8  5 4.93288622E-03 3.34497817E-03-2.13389958E-03 1.52017487E-03-1.45450419E-02
 8  6-5.23030567E-03-1.56337329E-02-1.11340147E-03-1.44522920E-03 2.96113772E-03
 8  7-2.23424760E-03 6.22870457E-04-4.54198299E-03-5.20079944E-03-1.26379864E-04
 8  8-5.46701278E-03 4.28821712E-03-1.90099569E-02-2.42038680E-02-7.96550596E-02
 8  9-3.11948611E-01 1.76414662E-01 7.75694219E-02-1.04654043E-01-4.16271922E-02
 8 10-6.55585113E-03-1.84627923E-04-3.67218440E-03-1.05804054E-03-1.85556386E-03
 8 11 1.34001540E-03 3.28670315E-03 1.89959200E-03 3.92015753E-03-4.81050109E-04
 8 12 1.89457001E-04-3.69512443E-04-1.39908496E-03 2.70931006E-04-7.92234759E-04
 9  1 1.25220298E-01-4.28197943E-02 1.00135961E-02-4.68836866E-03-5.60080729E-02
 9  2-9.39557732E-02-4.13917098E-01-2.27560258E-02 4.65636928E-01 1.48579292E-01
 9  3-6.84837833E-02 3.58905418E-02-8.37024273E-02 9.78785213E-02 5.16224534E-02
 9  4-3.58665780E-02-2.20145091E-02-1.13533708E-01 6.78960683E-03-1.19846752E-03
 9  5 5.31599446E-03 1.20349822E-03-1.42187771E-03 1.41271240E-03-1.66081475E-02
 9  6-1.29835966E-02-8.41682659E-03-4.07195911E-04 3.63629608E-03 2.53309931E-03
 9  7 4.17582973E-03-5.75638643E-04 3.06132300E-04-1.48443308E-02-2.07589197E-03
 9  8-9.65066008E-03-2.19126109E-04 2.04155428E-02 1.14708002E-02 1.01123974E-01
 9  9 1.59774440E-01-1.69108916E-01 2.00616532E-01-5.19007013E-02-1.79847272E-01
 9 10-2.18118026E-02-4.54206475E-04-1.33806700E-02-2.25452808E-04-1.62293776E-03
 9 11 5.25034514E-04 6.00534139E-03 2.18220449E-03 4.57044227E-03-6.76422588E-04
 9 12 3.37743336E-04-6.76855315E-04-7.45170106E-04 9.25228014E-05-7.30712671E-04
10  1-1.26147026E-01 1.71392919E-02-2.06241629E-02 4.13988540E-02-1.10518650E-01
10  2-9.84724189E-02 7.12480286E-02 8.05600619E-02 1.48579292E-01 3.51900610E-01
10  3-4.08224920E-02-3.74940201E-01-8.48642528E-02 5.71596643E-02-3.16514548E-03
10  4 2.16974270E-02 4.06297493E-02 1.20965066E-01-7.23886332E-03 4.79081115E-03
10  5-1.19811849E-02-6.02485510E-03-2.11804014E-02 1.08050934E-02-1.40566285E-01
10  6-4.60236195E-02 7.24062664E-02 2.08686913E-02-9.17924436E-03-5.45173139E-03
10  7 2.80991032E-03-9.47534577E-04 3.43653161E-03 1.00034981E-02 2.06122998E-03
10  8 8.44019405E-03 8.98355682E-04 1.23163402E-03 6.22863685E-04-1.61802993E-02
10  9 2.30703868E-04-1.24549398E-02-1.59419635E-02 2.36547319E-03-2.15464174E-02
10 10-1.35935240E-01 3.75274972E-02 1.78095275E-01 1.27733157E-02-1.57819010E-02
10 11-1.37968272E-04-1.37259604E-03-6.64026344E-04 1.70327412E-03 8.27557026E-04
10 12-2.46415055E-04-3.27155977E-04-1.56441208E-04 1.66682197E-03 4.05022518E-03
11  1 8.24655958E-02-1.14136478E-02 1.56698970E-02-2.59874605E-02 5.25099910E-02
11  2 3.69288827E-02-5.58413681E-02-7.53353691E-02-6.84837833E-02-4.08224920E-02
11  3 7.92284929E-01 1.16809042E-01 8.54339190E-02-3.88287361E-01 2.85069965E-02
11  4-1.62118679E-02-1.83685113E-02-9.43567839E-02 2.74390066E-03-4.02081228E-03
11  5 3.37199679E-03 1.44953471E-03 9.79788150E-03-2.07938828E-03-7.82897152E-02
11  6-1.75598236E-01 2.26130229E-02-2.62778522E-02-6.81246864E-02 8.20110243E-03
11  7-3.03045102E-03 1.71961648E-03-1.91642924E-03-8.58821889E-03-1.52928862E-03
11  8-5.77999860E-03-1.68483543E-03-1.22673881E-03 6.73892986E-04 1.73836922E-02
11  9-7.10098568E-04 1.31394554E-02 4.98687538E-03-6.79112906E-04 6.59437385E-03
11 10 2.96707661E-02-9.53315115E-02-7.37958268E-02 2.27005202E-02-1.62742164E-02
11 11-8.71348047E-03 6.22655166E-03 1.78616433E-03 3.55036308E-03 2.05877789E-04
11 12 1.44298724E-05-3.61601236E-05 3.46787786E-03-1.21126632E-03-8.98219209E-04
12  1-6.81210442E-02 5.34955934E-03-1.30721224E-02 2.32447644E-02-6.69001924E-02
12  2-6.30283894E-02 6.48139107E-02 5.11646625E-02 3.58905418E-02-3.74940201E-01
12  3 1.16809042E-01 6.26487524E-01 9.66659165E-02-8.39235061E-02-1.58925762E-01
12  4 3.42549911E-02-3.38930620E-02 6.28273395E-02-6.35767816E-03 8.21080592E-03
12  5-5.43270112E-03 2.53565828E-02 2.06281694E-02-4.77887941E-03 6.94422276E-02
12  6 4.38364614E-02-1.27271685E-01-6.22763530E-03-1.63123992E-02 1.91820171E-02
12  7 7.72893434E-04 4.13533804E-04 2.02680747E-03 4.40346547E-03 7.47056437E-04
12  8 4.76358743E-03-8.52585390E-04 2.34430610E-04 2.20523274E-04-2.24544101E-02
12  9 7.83752839E-04-1.65967326E-02 1.47857747E-03-4.93411190E-04-7.07225962E-04
12 10 1.63510091E-01-6.38432006E-02-3.59565397E-01-1.02595271E-02 2.13683385E-02
12 11 8.21626309E-03 2.20556211E-03-9.63942678E-04-8.39761433E-03-1.29078759E-03
12 12-3.26569323E-04-4.34352142E-06 4.35475196E-03-2.88953281E-03-1.83175159E-03
13  1 6.51648168E-02-5.69948897E-03 1.05999037E-02-5.57220561E-02 5.97274776E-02
13  2 8.35114186E-03-7.14678082E-02-3.25274921E-02-8.37024273E-02-8.48642528E-02
13  3 8.54339190E-02 9.66659165E-02 4.26960551E-01-3.88233475E-02-2.55190448E-01
13  4-1.78565401E-01 3.44825226E-02 1.03734584E-01-6.78163328E-03-1.36778636E-02
13  5 3.35372221E-02-1.94794513E-03 4.90827880E-03 3.32227674E-03 1.14989052E-02
13  6-1.43641087E-02-1.61327363E-02-4.42795160E-03-8.06969778E-03 3.20867307E-03
13  7-1.64775862E-03 4.93847118E-04-2.54569742E-03-6.19664149E-03-1.15528812E-03
13  8-6.21184303E-03 3.78290952E-03 1.40940054E-03 1.18891550E-03 6.93323165E-03
13  9 3.62124275E-05 5.30208572E-03 2.59785275E-03-1.74331250E-04 3.30732130E-03
13 10-8.46371816E-03 1.40983269E-02-8.90403107E-03-9.84799759E-02-8.61943296E-02
13 11 8.15733514E-02 2.27872514E-03 1.54073947E-03 2.07506316E-02-2.44474552E-04
13 12-1.95048032E-03 9.07587354E-04-4.07015697E-04 5.06079546E-04 2.35673429E-04
14  1-1.07804243E-01 1.08951957E-02-3.60834554E-02 4.08255063E-02-6.50628538E-02
14  2-6.49094388E-02 8.08888073E-02 4.99687956E-02 9.78785213E-02 5.71596643E-02
14  3-3.88287361E-01-8.39235061E-02-3.88233475E-02 8.65227000E-01-1.36873787E-01
14  4 6.50618736E-02-1.47901510E-01 5.11533350E-02-2.20382407E-02 1.45085794E-02
14  5 2.47470277E-02 6.89286502E-04 1.46897707E-03-1.45644149E-03 1.90501759E-02
14  6-4.08297541E-02 1.89268793E-02-3.44033826E-03 3.80201563E-03-5.71438364E-04
14  7 2.22424481E-03-2.22970505E-04 2.68003762E-03 7.38118317E-03 8.64823094E-04
14  8 7.41277644E-03 5.36503955E-04-2.29624242E-04 1.20795946E-03-1.05566718E-02
14  9 5.22326285E-04-7.65828117E-03-3.91901819E-03 7.78812956E-04-5.71428225E-03
14 10 7.37056847E-03 6.88361365E-04 1.01487113E-02-9.75314401E-02-2.99568228E-01
14 11 1.64768331E-01 4.42005192E-03-9.10872487E-04-4.30488273E-02-3.08174289E-03
14 12-6.01427804E-03 2.17009941E-03 1.58569923E-03 3.01369764E-04-8.51883703E-04
15  1-1.30859338E-01 1.37686778E-02-4.99181362E-02 2.87666959E-02-5.50151351E-02
15  2-6.20544836E-02 4.05341370E-02 3.38804042E-02 5.16224534E-02-3.16514548E-03
15  3 2.85069965E-02-1.58925762E-01-2.55190448E-01-1.36873787E-01 7.10123856E-01
15  4 2.13865479E-01-4.60430169E-02-2.92274854E-01-1.03196722E-04 9.14278575E-03
15  5-2.89946070E-02 5.07903388E-05-4.93958019E-03 2.63557150E-05-1.18319599E-02
15  6 5.61539841E-03 1.55776039E-02 3.51665808E-03 6.84754842E-03-1.61189028E-03
15  7 4.02878213E-03-1.38957942E-03 3.56504085E-03 1.01349259E-02 1.29024571E-03
15  8 8.27960683E-03 2.97395973E-03 1.63393485E-03 7.79666391E-04-6.19821232E-03
15  9 1.18155345E-03-4.27338601E-03-2.27988360E-03 1.01954105E-03-2.32895539E-03
15 10 2.15328105E-02-3.64980683E-02 8.55287796E-03 9.57709351E-02 1.75211020E-01
15 11-1.97397186E-01-1.24024263E-02 3.75290436E-03-1.65272242E-03 3.17065125E-04
15 12-2.81263231E-04 8.02554568E-04 5.36451288E-04-8.12575113E-04 1.03485513E-04
16  1 7.20859254E-02-1.28449762E-02 2.58107312E-02-6.58906453E-02 5.96618437E-02
16  2 3.38773134E-02-3.12781608E-02-2.96216567E-02-3.58665780E-02 2.16974270E-02
16  3-1.62118679E-02 3.42549911E-02-1.78565401E-01 6.50618736E-02 2.13865479E-01
16  4 4.59776464E-01-1.46620540E-01-3.67241436E-01-1.51948598E-01-4.32894755E-02
16  5 6.51409087E-02 1.88191255E-02-1.72485853E-02-7.30601608E-03-1.08562168E-02
16  6 7.88346122E-03-1.09547765E-02 1.34584747E-03-4.59580549E-03 1.70733871E-03
16  7-5.81784336E-03 2.55451709E-03-4.60842437E-03-9.78413881E-03-1.43262092E-03
16  8-9.15407703E-03-1.13017238E-03-1.17129930E-03-1.03350255E-03 4.02908263E-03
16  9-1.36585894E-03 2.22693641E-03 1.36344718E-03-1.47870730E-03 3.13810716E-04
16 10 2.32427720E-03 4.18775714E-03 2.74808505E-03 1.85455733E-03 9.25354649E-03
16 11 1.20227936E-02-1.27940568E-01 1.46866587E-01 3.08482727E-02-5.38254900E-03
16 12-2.11479563E-02 5.41906326E-03 5.30099839E-03 1.56098167E-03 7.92767048E-03
17  1 4.59001747E-02-5.06132755E-02 1.49782252E-02-1.76385244E-02 1.82865184E-02
17  2 1.57898024E-02-1.08144484E-02-1.67921973E-02-2.20145091E-02 4.06297493E-02
17  3-1.83685113E-02-3.38930620E-02 3.44825226E-02-1.47901510E-01-4.60430169E-02
17  4-1.46620540E-01 8.58261560E-01 9.80653392E-03-7.68269805E-02-2.29554424E-01
17  5 5.83256197E-02-2.20531502E-02-4.07783977E-02 1.56968506E-02 3.08526245E-05
17  6 5.52683711E-03-1.18336240E-03-7.58540548E-04-1.37591568E-03 1.57988284E-03
17  7-1.21694296E-02 2.24936932E-03-1.21861089E-02 5.09798043E-03 1.27850737E-03
17  8 4.28629527E-03 8.11177755E-04 4.11563830E-04-1.39016265E-04 3.30463469E-03
17  9 4.65887344E-04 1.74513065E-03 4.93974102E-04-5.54499067E-05 2.07275295E-03
17 10 3.09519764E-03-7.57567632E-03 1.45417172E-03-1.27746159E-02 1.29258234E-02
17 11 3.01247883E-02 1.58379307E-01-3.93383808E-01-2.94096914E-02 9.29385406E-03
17 12 9.81483743E-03-6.50107327E-03-1.86185902E-03-2.82215827E-03-4.49117803E-03
18  1 2.16605562E-01-2.29684480E-02 1.83408669E-02-1.07105425E-01 1.07139520E-01
18  2 7.95168926E-02-8.36643725E-02-7.74367358E-02-1.13533708E-01 1.20965066E-01
18  3-9.43567839E-02 6.28273395E-02 1.03734584E-01 5.11533350E-02-2.92274854E-01
18  4-3.67241436E-01 9.80653392E-03 4.72567187E-01 9.62362516E-02 5.85233732E-02
18  5-1.19746271E-01-6.14297696E-03-4.63214955E-03 9.43895510E-03-1.27554499E-02
18  6 5.52249652E-03-1.69260768E-02 1.65843794E-03-3.62789037E-03 2.46871521E-03
18  7-1.12915147E-02 3.82318170E-03-1.07402764E-02-3.15903374E-02-3.27573622E-03
18  8-2.82048090E-02 1.02744569E-03 1.44665483E-03-2.00029635E-03 1.35102003E-02
18  9 3.21427384E-04 8.80285190E-03 4.07858034E-03-7.45785277E-04 6.54244433E-03
18 10-4.56871570E-03 7.41404731E-04-1.56901686E-03 3.29867395E-03-1.38946956E-02
18 11-1.18776703E-02 4.61582373E-02-3.80646745E-02-6.42878798E-02 1.17947006E-02
18 12 2.39877641E-02-3.32496180E-03 5.29586787E-03-3.46200426E-03 3.97676194E-03
19  1-3.67961953E-02-1.05377167E-02-1.13872891E-02 8.00620676E-03-9.12448521E-03
19  2-5.81286888E-03 6.30786483E-03 6.32835600E-03 6.78960683E-03-7.23886332E-03
19  3 2.74390066E-03-6.35767816E-03-6.78163328E-03-2.20382407E-02-1.03196722E-04
19  4-1.51948598E-01-7.68269805E-02 9.62362516E-02 5.30936694E-01-3.57631875E-02
19  5-3.38489100E-01-1.31743855E-01 6.75364690E-02 6.84248185E-02 1.18252101E-02
19  6 3.22719848E-02 2.68012058E-03-6.82849037E-03 8.04037945E-04 6.76277900E-03
19  7-1.03932727E-04-4.77435322E-04-2.13158870E-04-1.82391562E-03-3.21687165E-03
19  8 4.67915438E-04 4.90337663E-04-1.37343681E-04 4.52701282E-04-1.20335338E-03
19  9 2.72284408E-04-3.17297838E-04-6.38042839E-05-6.08220683E-05-8.06801066E-05
19 10 5.43326299E-04-7.24920064E-04 3.95702380E-06 5.03235084E-03 7.61735749E-04
19 11 3.62828448E-03 9.80680023E-03 1.40006031E-02-1.10145900E-02-2.38630878E-01
19 12 5.85537536E-02 1.94706284E-01 1.02140806E-02-2.43652734E-02-6.37640758E-03
20  1-2.35866684E-02-2.12154471E-03-1.24273976E-02 4.51940165E-03-5.27162944E-03
20  2-2.00979872E-03 1.54867145E-03 3.12209751E-03-1.19846752E-03 4.79081115E-03
20  3-4.02081228E-03 8.21080592E-03-1.36778636E-02 1.45085794E-02 9.14278575E-03
20  4-4.32894755E-02-2.29554424E-01 5.85233732E-02-3.57631875E-02 1.07980583E+00
20  5 2.10397730E-01 3.91185113E-02-7.08009290E-01-1.71223429E-01 2.52522982E-02
20  6-1.77626699E-02-3.17743801E-02-5.16470467E-03 1.18998178E-02 6.55064367E-03
20  7 7.56364381E-04-5.27569866E-04 5.14232278E-04-4.83232193E-04 1.38477611E-04
20  8 1.60433868E-03 2.78489777E-04-1.39308405E-04 3.64490919E-04-5.28328266E-05
20  9 1.71418585E-04 2.21886028E-04 3.96951353E-04-1.38944174E-04 1.05662493E-03
20 10-1.46980639E-03-1.31445777E-03-5.59359187E-05-5.62496910E-04-1.64967830E-03
20 11-4.61494235E-03-2.78855977E-02-1.87481610E-02 1.47718724E-02 6.26847217E-02
20 12-1.01376156E-01-7.48047025E-02 1.25888638E-02-1.90115897E-02-1.32488865E-02
21  1-1.68535799E-02-7.60480504E-03-1.20207714E-03 3.57273175E-03-2.46061563E-03
21  2-2.85306264E-03 2.17619067E-03 4.93288622E-03 5.31599446E-03-1.19811849E-02
21  3 3.37199679E-03-5.43270112E-03 3.35372221E-02 2.47470277E-02-2.89946070E-02
21  4 6.51409087E-02 5.83256197E-02-1.19746271E-01-3.38489100E-01 2.10397730E-01
21  5 5.89693511E-01 6.41450467E-02-1.92055211E-01-1.72805941E-01 4.12973657E-03
21  6-3.98332550E-02-3.13997045E-03 5.54219532E-03 3.03506590E-03-4.04302866E-03
21  7-8.19943207E-04 2.13215643E-04-7.24698134E-04-4.85267694E-03-2.65566417E-03
21  8 2.26600690E-04 5.04015973E-05-3.78487353E-04 6.36187724E-04-1.59013241E-03
21  9-4.60560376E-04-5.71430147E-04-3.82638085E-04 7.65870922E-05-1.10186889E-03
21 10-6.42342725E-04 5.02733665E-04-1.57324223E-06 6.01120922E-03-1.38586158E-03
21 11-3.23470712E-03-2.80344722E-03-5.80557268E-03 3.67541819E-03 1.94168309E-01
21 12-7.02866002E-02-2.66822565E-01-5.94503233E-05 1.73239619E-02 1.11262734E-02
22  1-5.07394402E-03-1.99858473E-04-2.57444215E-03 1.62335377E-03-2.46496319E-03
22  2-1.79733827E-03 3.45423209E-03 3.34497817E-03 1.20349822E-03-6.02485510E-03
22  3 1.44953471E-03 2.53565828E-02-1.94794513E-03 6.89286502E-04 5.07903388E-05
22  4 1.88191255E-02-2.20531502E-02-6.14297696E-03-1.31743855E-01 3.91185113E-02
22  5 6.41450467E-02 4.85471315E-01 1.02440169E-01-3.02891607E-01-1.91324726E-01
22  6 4.58164096E-04 9.50492968E-02 8.68365163E-03 2.07461966E-02 1.81907384E-02
22  7 7.16618680E-05-1.54204258E-04 2.15578035E-04-6.02607798E-04-4.43333930E-04
22  8 3.51152814E-04 8.50538778E-05-3.11823397E-07 5.67613653E-05-9.88920167E-04
22  9-1.93985051E-04-1.02510941E-04 3.21118502E-04-1.73530798E-04 4.62489632E-04
22 10-6.62109438E-04-3.21406092E-03 5.24930221E-04-6.28209505E-04-1.33827952E-04
22 11-1.15970088E-03-3.01300751E-03-2.55484498E-03 2.46722445E-03 9.43526948E-03
22 12 2.77472044E-02 8.88208820E-03-1.85956474E-01-1.64408462E-01 9.77128142E-02
23  1 9.84474073E-03-1.49228921E-03 5.57094208E-03-2.69046646E-03 3.47633390E-03
23  2 1.47742803E-03-8.75122110E-04-2.13389958E-03-1.42187771E-03-2.11804014E-02
23  3 9.79788150E-03 2.06281694E-02 4.90827880E-03 1.46897707E-03-4.93958019E-03
23  4-1.72485853E-02-4.07783977E-02-4.63214955E-03 6.75364690E-02-7.08009290E-01
23  5-1.92055211E-01 1.02440169E-01 1.19031847E+00 1.14914437E-01-5.30880955E-03
23  6-1.21522593E-01-1.06364173E-03 4.33327272E-02-3.07994102E-02-5.41943105E-02
23  7-8.05651254E-04 3.14926954E-04-3.71033077E-04 8.79712749E-05-1.63472990E-04
23  8 1.49065359E-04-1.50769788E-04 1.93584931E-04-4.59932629E-05-1.09150622E-04
23  9 5.63479868E-05-5.60897186E-04 1.70548398E-04 2.40074191E-04-2.46503908E-04
23 10-2.62324922E-03-5.00811289E-03 1.09808474E-03 1.43321992E-04 7.67554719E-04
23 11-2.75186609E-04-1.06404354E-03-9.47519550E-04 2.77359631E-03-6.78980260E-03
23 12-2.25576111E-03 4.28229085E-03-1.69617694E-01-2.93523338E-01 1.08912040E-01
24  1-4.42299879E-04-1.15547549E-04 5.66701004E-04 5.85554092E-04-1.22522628E-03
24  2-3.26316974E-04 2.31951448E-03 1.52017487E-03 1.41271240E-03 1.08050934E-02
24  3-2.07938828E-03-4.77887941E-03 3.32227674E-03-1.45644149E-03 2.63557150E-05
24  4-7.30601608E-03 1.56968506E-02 9.43895510E-03 6.84248185E-02-1.71223429E-01
24  5-1.72805941E-01-3.02891607E-01 1.14914437E-01 4.73538074E-01 9.60472216E-02
24  6 6.64576581E-04-1.85384416E-01 2.34451775E-02-3.56877174E-02-7.18856956E-03
24  7-3.41157949E-04-2.04690082E-04 1.34032348E-04 2.58788647E-04-5.07395006E-04
24  8 7.73960996E-04-1.25133695E-04 1.14995756E-04 6.82370511E-05 1.64065638E-04
24  9 1.41070817E-04-3.57322867E-04-1.30706339E-05-4.29108657E-05 1.80068829E-04
24 10 1.73094912E-03 7.12479028E-04 1.32022503E-03 3.70395028E-04-5.08591587E-04
24 11 8.50995065E-04 3.08667812E-03 2.89115335E-03-9.61680520E-04 3.53177830E-03
24 12-3.06740348E-02 5.38134613E-03 9.70258956E-02 1.07068919E-01-1.21888527E-01
25  1 7.97058820E-03-2.35494088E-03 2.38584314E-03-2.48572051E-03 7.42235485E-03
25  2 6.38871472E-03-2.77952056E-02-1.45450419E-02-1.66081475E-02-1.40566285E-01
25  3-7.82897152E-02 6.94422276E-02 1.14989052E-02 1.90501759E-02-1.18319599E-02
25  4-1.08562168E-02 3.08526245E-05-1.27554499E-02 1.18252101E-02 2.52522982E-02
25  5 4.12973657E-03-1.91324726E-01-5.30880955E-03 9.60472216E-02 4.56734435E-01
25  6-3.94214753E-02-2.19812305E-01-1.01990458E-01 9.36949302E-02 5.60466820E-02
25  7-7.29334042E-04-8.81937650E-05-1.09785112E-04 7.34297578E-06-2.08864213E-04
25  8 3.85608663E-04-1.52635999E-04-5.58772287E-05 6.60024443E-04-2.62092734E-03
25  9-3.36134442E-03-1.54230360E-03 1.01315814E-05 3.93579764E-04-5.57663400E-06
25 10-6.95744681E-03-1.44899160E-02 1.14783124E-03 2.91024412E-05 6.81010904E-03
25 11 4.81463870E-03-1.09101055E-03-9.33782772E-04 8.78694465E-04 6.42452529E-03
25 12-4.27909028E-03 9.24421359E-03-7.92989017E-03 1.06823935E-02 1.10947597E-02
26  1-1.50644511E-03-3.62502449E-04-6.07713546E-04-1.30018600E-03 2.26982267E-03
26  2 4.04983921E-03-1.91092896E-02-5.23030567E-03-1.29835966E-02-4.60236195E-02
26  3-1.75598236E-01 4.38364614E-02-1.43641087E-02-4.08297541E-02 5.61539841E-03
26  4 7.88346122E-03 5.52683711E-03 5.52249652E-03 3.22719848E-02-1.77626699E-02
26  5-3.98332550E-02 4.58164096E-04-1.21522593E-01 6.64576581E-04-3.94214753E-02
26  6 1.19766070E+00 2.56440056E-01 9.74038623E-02-8.61998755E-01-2.76959671E-01
26  7 4.09471477E-04-4.67355193E-04 4.68985997E-04 1.08407843E-03 4.33013507E-04
26  8 4.28631760E-04-1.25726812E-04-1.87371546E-04-3.05919317E-04 1.97250912E-03
26  9 9.73925025E-04 3.22826770E-03 1.52443288E-04-2.06369490E-04 1.09182815E-03
26 10 4.49064584E-03 1.09874637E-02-7.22976305E-03-6.19576532E-04-2.08904777E-03
26 11-2.04403069E-03-4.35059869E-04 3.37039467E-04 7.48026233E-04-3.39846071E-03
26 12-4.82115361E-03-1.83480256E-03-1.98229825E-02 1.28872811E-02 1.97050782E-02
27  1 1.04412312E-02-1.46829903E-03-1.28276697E-03-3.50680066E-03 7.42779752E-03
27  2 4.67842914E-03-1.84507732E-02-1.56337329E-02-8.41682659E-03 7.24062664E-02
27  3 2.26130229E-02-1.27271685E-01-1.61327363E-02 1.89268793E-02 1.55776039E-02
27  4-1.09547765E-02-1.18336240E-03-1.69260768E-02 2.68012058E-03-3.17743801E-02
27  5-3.13997045E-03 9.50492968E-02-1.06364173E-03-1.85384416E-01-2.19812305E-01
27  6 2.56440056E-01 5.09717741E-01 5.53231844E-02-2.75789695E-01-1.85766937E-01
27  7-2.64630747E-04 7.24806828E-04-6.73886083E-04-2.32664222E-03-5.92393537E-04
27  8-1.94132937E-03 4.02230891E-04-2.65167951E-04 2.78493400E-04-3.92623797E-03
27  9-2.37358764E-03 4.58825246E-04-2.68154445E-04 2.87429224E-04-4.54328966E-04
27 10 1.48186836E-02 2.98282843E-02-6.22422844E-03 6.34943182E-03-2.07311713E-04
27 11 2.26279138E-03 1.89980157E-03 1.66424860E-03-7.07124104E-04 1.03373722E-02
27 12 2.92111083E-04 7.62292991E-03 5.93603204E-03-7.85205557E-03-2.40620202E-03
28  1-6.38448579E-04 5.32293811E-04-7.16277700E-04-4.10903584E-04-4.87095448E-04
28  2-3.47605791E-04 6.98902238E-04-1.11340147E-03-4.07195911E-04 2.08686913E-02
28  3-2.62778522E-02-6.22763530E-03-4.42795160E-03-3.44033826E-03 3.51665808E-03
28  4 1.34584747E-03-7.58540548E-04 1.65843794E-03-6.82849037E-03-5.16470467E-03
28  5 5.54219532E-03 8.68365163E-03 4.33327272E-02 2.34451775E-02-1.01990458E-01
28  6 9.74038623E-02 5.53231844E-02 7.93543566E-02-1.05777981E-01-7.48443612E-02
28  7 2.23414385E-04 2.67023019E-05 8.78352740E-06-2.33326066E-04-4.32329507E-05
28  8-3.08360052E-04 1.79019121E-04-2.81338325E-05-1.37147150E-04-1.31974616E-04
28  9 1.41538775E-04 5.99907206E-04 2.17032311E-04 9.42729670E-05 2.86303290E-04
28 10 3.66023040E-04 2.08664779E-03-1.61698018E-03 8.63360529E-04-1.58280224E-03
28 11-8.90774142E-04 4.96280799E-04 3.78698943E-04-2.87369068E-04-6.02400041E-04
28 12 2.04100973E-03-1.51403499E-03 1.96765382E-03-1.36332638E-03-3.08395038E-03
29  1 2.95616980E-03-9.00074820E-05 1.91726425E-03-1.26151229E-03 9.85547597E-04
29  2-6.85546821E-04 5.24453927E-03-1.44522920E-03 3.63629608E-03-9.17924436E-03
29  3-6.81246864E-02-1.63123992E-02-8.06969778E-03 3.80201563E-03 6.84754842E-03
29  4-4.59580549E-03-1.37591568E-03-3.62789037E-03 8.04037945E-04 1.18998178E-02
29  5 3.03506590E-03 2.07461966E-02-3.07994102E-02-3.56877174E-02 9.36949302E-02
29  6-8.61998755E-01-2.75789695E-01-1.05777981E-01 9.45577666E-01 3.17339216E-01
29  7-2.09459688E-04 2.19702344E-04-2.76154978E-04-3.93845549E-04-1.81569645E-04
29  8-3.68267431E-04 2.30313991E-04 2.77937655E-04 9.60875968E-05-3.58785204E-04
29  9-8.01719771E-05-6.19794968E-04-8.06225545E-05 9.72662010E-05-4.24627062E-04
29 10 2.83715490E-03 3.46203197E-03-9.53503280E-04 2.38620989E-03-1.57644341E-03
29 11 3.99184339E-04 5.96428998E-04 2.79112960E-04 1.90911345E-04 8.57726713E-04